 vasp.5.4.4.18Apr17-6-g9f103f2a35 (build Sep 13 2019 13:34:59) complex
 executed on             LinuxGNU date 2020.11.20  20:21:16

 INCAR:
 POTCAR:    PAW_PBE Pb_d 06Sep2000
 POTCAR:    PAW_PBE Pb_d 06Sep2000
   VRHFIN =Pb:

   TITEL  = PAW_PBE Pb_d 06Sep2000
   POMASS =  207.200; ZVAL   =   14.000    mass and valenz
   ENMAX  =  237.835; ENMIN  =  178.376 eV

  PAW_PBE Pb_d 06Sep2000                :

 POSCAR: Pb_2Dslab_20L
  positions in direct lattice
  velocities in cartesian coordinates
 exchange correlation table for  LEXCH =        8
   RHO(1)=    0.500       N(1)  =     2000
   RHO(2)=  100.500       N(2)  =     4000

 ion  position               nearest neighbor table
   1  0.667  0.333  0.001-   2 3.38   2 3.38   2 3.38
   2  0.000  0.000  0.038-   1 3.38   1 3.38   1 3.38   3 3.52   3 3.52   3 3.52
   3  0.333  0.667  0.077-   4 3.49   4 3.49   4 3.49   2 3.52   2 3.52   2 3.52
   4  0.667  0.333  0.115-   3 3.49   3 3.49   3 3.49   5 3.49   5 3.49   5 3.49
   5  0.000  0.000  0.154-   6 3.49   6 3.49   6 3.49   4 3.49   4 3.49   4 3.49
   6  0.333  0.667  0.192-   7 3.48   7 3.48   7 3.48   5 3.49   5 3.49   5 3.49
   7  0.667  0.333  0.231-   6 3.48   6 3.48   6 3.48   8 3.49   8 3.49   8 3.49
   8  0.000  0.000  0.269-   9 3.48   9 3.48   9 3.48   7 3.49   7 3.49   7 3.49
   9  0.333  0.667  0.307-   8 3.48   8 3.48   8 3.48  10 3.50  10 3.50  10 3.50
  10  0.667  0.333  0.346-  11 3.48  11 3.48  11 3.48   9 3.50   9 3.50   9 3.50
  11  0.000  0.000  0.384-  10 3.48  10 3.48  10 3.48  12 3.50  12 3.50  12 3.50
  12  0.333  0.667  0.423-  13 3.48  13 3.48  13 3.48  11 3.50  11 3.50  11 3.50
  13  0.667  0.333  0.461-  12 3.48  12 3.48  12 3.48  14 3.49  14 3.49  14 3.49
  14  0.000  0.000  0.500-  15 3.48  15 3.48  15 3.48  13 3.49  13 3.49  13 3.49
  15  0.333  0.667  0.538-  14 3.48  14 3.48  14 3.48  16 3.49  16 3.49  16 3.49
  16  0.667  0.333  0.576-  15 3.49  15 3.49  15 3.49  17 3.49  17 3.49  17 3.49
  17  0.000  0.000  0.615-  18 3.49  18 3.49  18 3.49  16 3.49  16 3.49  16 3.49
  18  0.333  0.667  0.653-  17 3.49  17 3.49  17 3.49  19 3.52  19 3.52  19 3.52
  19  0.667  0.333  0.692-  20 3.38  20 3.38  20 3.38  18 3.52  18 3.52  18 3.52
  20  0.000  0.000  0.729-  19 3.38  19 3.38  19 3.38

  LATTYP: Found a hexagonal cell.
 ALAT       =     3.4867435000
 C/A-ratio  =    21.2494464735

  Lattice vectors:

 A1 = (   2.4654999731,  -2.4654999731,   0.0000000000)
 A2 = (   0.0000000000,   2.4654999731,  -2.4654999731)
 A3 = (  42.7766720505,  42.7766720505,  42.7766720505)

Analysis of symmetry for initial positions (statically):
 Subroutine PRICEL returns:
 Original cell was already a primitive cell.

 Routine SETGRP: Setting up the symmetry group for a
 hexagonal supercell.

 Subroutine GETGRP returns: Found 12 space group operations
 (whereof  6 operations were pure point group operations)
 out of a pool of 24 trial point group operations.

The static configuration has the point symmetry C_3v.
 The point group associated with its full space group is D_3d.

Analysis of symmetry for dynamics (positions and initial velocities):
 Subroutine PRICEL returns:
 Original cell was already a primitive cell.

 Routine SETGRP: Setting up the symmetry group for a
 hexagonal supercell.

 Subroutine GETGRP returns: Found 12 space group operations
 (whereof  6 operations were pure point group operations)
 out of a pool of 24 trial point group operations.

The dynamic configuration has the point symmetry C_3v.
 The point group associated with its full space group is D_3d.

 Subroutine INISYM returns: Found 12 space group operations
 (whereof  6 operations are pure point group operations),
 and found     1 'primitive' translations

 KPOINTS: Pb_2Dslab_20L M-G-L
  interpolating k-points between supplied coordinates
  k-points in reciprocal lattice
Space group operators:
 irot       det(A)        alpha          n_x          n_y          n_z        tau_x        tau_y        tau_z
    1     1.000000     0.000000     1.000000     0.000000     0.000000     0.000000     0.000000     0.000000
    2     1.000000   120.000000    -0.577350    -0.577350    -0.577350     0.000000     0.000000     0.000000
    3     1.000000   120.000000     0.577350     0.577350     0.577350     0.000000     0.000000     0.000000
    4    -1.000000   180.000000     0.707107    -0.707107     0.000000     0.000000     0.000000     0.000000
    5    -1.000000   180.000000     0.000000     0.707107    -0.707107     0.000000     0.000000     0.000000
    6    -1.000000   180.000000     0.707107    -0.000000    -0.707107     0.000000     0.000000     0.000000
    7    -1.000000     0.000000     1.000000     0.000000     0.000000     0.666667     0.333334     0.730063
    8    -1.000000   120.000000    -0.577350    -0.577350    -0.577350     0.666666     0.333334     0.730063
    9    -1.000000   120.000000     0.577350     0.577350     0.577350     0.666667     0.333334     0.730063
   10     1.000000   180.000000     0.707107    -0.707107     0.000000     0.666667     0.333334     0.730063
   11     1.000000   180.000000     0.000000     0.707107    -0.707107     0.666667     0.333334     0.730063
   12     1.000000   180.000000     0.707107    -0.000000    -0.707107     0.666666     0.333334     0.730063

 SYSTEM =  Pb_2Dslab_20L
 POSCAR =  Pb_2Dslab_20L

 Startparameter for this run:
   NWRITE =      2    write-flag & timer
   PREC   = normal    normal or accurate (medium, high low for compatibility)
   ISTART =      1    job   : 0-new  1-cont  2-samecut
   ICHARG =     11    charge: 1-file 2-atom 10-const
   ISPIN  =      1    spin polarized calculation?
   LNONCOLLINEAR =      F non collinear calculations
   LSORBIT =      F    spin-orbit coupling
   INIWAV =      1    electr: 0-lowe 1-rand  2-diag
   LASPH  =      F    aspherical Exc in radial PAW
   METAGGA=      F    non-selfconsistent MetaGGA calc.

 Electronic Relaxation 1
   ENCUT  =  400.0 eV  29.40 Ry    5.42 a.u.   5.69  5.69120.82*2*pi/ulx,y,z
   ENINI  =  400.0     initial cutoff
   ENAUG  =  391.9 eV  augmentation charge cutoff
   NELM   =     60;   NELMIN=  2; NELMDL=  0     # of ELM steps
   EDIFF  = 0.1E-05   stopping-criterion for ELM
   LREAL  =      F    real-space projection
   NLSPLINE    = F    spline interpolate recip. space projectors
   LCOMPAT=      F    compatible to vasp.4.4
   GGA_COMPAT  = T    GGA compatible to vasp.4.4-vasp.4.6
   LMAXPAW     = -100 max onsite density
   LMAXMIX     =    2 max onsite mixed and CHGCAR
   VOSKOWN=      0    Vosko Wilk Nusair interpolation
   ROPT   =    0.00000
 Ionic relaxation
   EDIFFG = 0.1E-04   stopping-criterion for IOM
   NSW    =      0    number of steps for IOM
   NBLOCK =      1;   KBLOCK =      1    inner block; outer block
   IBRION =     -1    ionic relax: 0-MD 1-quasi-New 2-CG
   NFREE  =      0    steps in history (QN), initial steepest desc. (CG)
   ISIF   =      2    stress and relaxation
   IWAVPR =     10    prediction:  0-non 1-charg 2-wave 3-comb
   ISYM   =      2    0-nonsym 1-usesym 2-fastsym
   LCORR  =      T    Harris-Foulkes like correction to forces

   POTIM  = 0.5000    time-step for ionic-motion
   TEIN   =    0.0    initial temperature
   TEBEG  =    0.0;   TEEND  =   0.0 temperature during run
   SMASS  =  -3.00    Nose mass-parameter (am)
   estimated Nose-frequenzy (Omega)   =  0.10E-29 period in steps =****** mass=  -0.278E-27a.u.
   SCALEE = 1.0000    scale energy and forces
   NPACO  =    256;   APACO  = 16.0  distance and # of slots for P.C.
   PSTRESS=    0.0 pullay stress

  Mass of Ions in am
   POMASS = 207.20
  Ionic Valenz
   ZVAL   =  14.00
  Atomic Wigner-Seitz radii
  virtual crystal weights
   VCA    =   1.00
   NELECT =     280.0000    total number of electrons
   NUPDOWN=      -1.0000    fix difference up-down

 DOS related values:
   EMIN   =  10.00;   EMAX   =-10.00  energy-range for DOS
   EFERMI =   0.00
   ISMEAR =     0;   SIGMA  =   0.10  broadening in eV -4-tet -1-fermi 0-gaus

 Electronic relaxation 2 (details)
   IALGO  =     38    algorithm
   LDIAG  =      T    sub-space diagonalisation (order eigenvalues)
   LSUBROT=      F    optimize rotation matrix (better conditioning)
   TURBO    =      0    0=normal 1=particle mesh
   IRESTART =      0    0=no restart 2=restart with 2 vectors
   NREBOOT  =      0    no. of reboots
   NMIN     =      0    reboot dimension
   EREF     =   0.00    reference energy to select bands
   IMIX   =      4    mixing-type and parameters
     AMIX     =   0.40;   BMIX     =  1.00
     AMIX_MAG =   1.60;   BMIX_MAG =  1.00
     AMIN     =   0.10
     WC   =   100.;   INIMIX=   1;  MIXPRE=   1;  MAXMIX= -45

 Intra band minimization:
   WEIMIN = 0.0000     energy-eigenvalue tresh-hold
   EBREAK =  0.10E-08  absolut break condition
   DEPER  =   0.30     relativ break condition

   TIME   =   0.40     timestep for ELM

  volume/ion in A,a.u.               =      39.00       263.21
  Fermi-wavevector in a.u.,A,eV,Ry     =   1.163451  2.198604 18.417094  1.353618
  Thomas-Fermi vector in A             =   2.300001

 Write flags
   LWAVE        =      T    write WAVECAR
   LDOWNSAMPLE  =      F    k-point downsampling of WAVECAR
   LCHARG       =      T    write CHGCAR
   LVTOT        =      F    write LOCPOT, total local potential
   LVHAR        =      F    write LOCPOT, Hartree potential only
   LELF         =      F    write electronic localiz. function (ELF)
   LORBIT       =     11    0 simple, 1 ext, 2 COOP (PROOUT), +10 PAW based schemes

 Dipole corrections
   LMONO  =      F    monopole corrections only (constant potential shift)
   LDIPOL =      F    correct potential (dipole corrections)
   IDIPOL =      0    1-x, 2-y, 3-z, 4-all directions
   EPSILON=  1.0000000 bulk dielectric constant

 Exchange correlation treatment:
   GGA     =    PE    GGA type
   VOSKOWN=      0    Vosko Wilk Nusair interpolation
   LHFCALC =     F    Hartree Fock is set to
   LHFONE  =     F    Hartree Fock one center treatment
   AEXX    =    0.0000 exact exchange contribution

 Linear response parameters
   LEPSILON=     F    determine dielectric tensor
   LRPA    =     F    only Hartree local field effects (RPA)
   LNABLA  =     F    use nabla operator in PAW spheres
   LVEL    =     F    velocity operator in full k-point grid
   LINTERFAST=   F  fast interpolation
   KINTER  =     0    interpolate to denser k-point grid
   CSHIFT  =0.1000    complex shift for real part using Kramers Kronig
   OMEGAMAX=  -1.0    maximum frequency
   DEG_THRESHOLD= 0.2000000E-02 threshold for treating states as degnerate
   RTIME   =   -0.100 relaxation time in fs
  (WPLASMAI=    0.000 imaginary part of plasma frequency in eV, 0.658/RTIME)
   DFIELD  = 0.0000000 0.0000000 0.0000000 field for delta impulse in time

 Orbital magnetization related:
   ORBITALMAG=     F  switch on orbital magnetization
   LCHIMAG   =     F  perturbation theory with respect to B field
   DQ        =  0.001000  dq finite difference perturbation B field
   LLRAUG    =     F  two centre corrections for induced B field

 Static calculation
 charge density and potential remain constant during run
 non-spin polarized calculation
 Variant of blocked Davidson
[...]

 initial charge density was supplied:
 number of electron     279.9999487 magnetization
 keeping initial charge density in first step

 Maximum index for augmentation-charges          801 (set IRDMAX)

 First call to EWALD:  gamma=   0.193
 Maximum number of real-space cells 7x 7x 1
 Maximum number of reciprocal cells 1x 1x19

--------------------------------------- Iteration      1(   1)  ---------------------------------------

 eigenvalue-minimisations  :149610
 total energy-change (2. order) :-0.2117121E+02  (-0.3385849E+03)
 number of electron     279.9999487 magnetization
 augmentation part      279.9999487 magnetization

 Free energy of the ion-electron system (eV)
  alpha Z        PSCENC =       841.29232037
  Ewald energy   TEWEN  =    198660.53375098
  -Hartree energ DENC   =   -231428.55070843
  -exchange      EXHF   =         0.00000000
  -V(xc)+E(xc)   XCENC  =       757.33610584
  PAW double counting   =     30110.48299817   -29789.40751102
  entropy T*S    EENTRO =        -0.03210952
  eigenvalues    EBANDS =     -2405.05873615
  atomic energy  EATOM  =     33232.23268158
  Solvation  Ediel_sol  =         0.00000000
  free energy    TOTEN  =       -21.17120818 eV

  energy without entropy =      -21.13909866  energy(sigma->0) =      -21.15515342

[...]

--------------------------------------- Iteration      1(   7)  ---------------------------------------

 eigenvalue-minimisations  :100420
 total energy-change (2. order) :-0.6387127E-06  (-0.6379027E-06)
 number of electron     279.9999487 magnetization
 augmentation part      279.9999487 magnetization

 Free energy of the ion-electron system (eV)
  alpha Z        PSCENC =       841.29232037
  Ewald energy   TEWEN  =    198660.53375098
  -Hartree energ DENC   =   -231428.55070843
  -exchange      EXHF   =         0.00000000
  -V(xc)+E(xc)   XCENC  =       757.33610584
  PAW double counting   =     30110.48299817   -29789.40751102
  entropy T*S    EENTRO =        -0.03864091
  eigenvalues    EBANDS =     -2464.93624597
  atomic energy  EATOM  =     33232.23268158
  Solvation  Ediel_sol  =         0.00000000
  free energy    TOTEN  =       -81.05524938 eV

  energy without entropy =      -81.01660848  energy(sigma->0) =      -81.03592893

 average (electrostatic) potential at core
  the test charge radii are     1.1541
  (the norm of the test charge is              1.0000)
       1 -92.6907       2 -92.6550       3 -92.7205       4 -92.6825       5 -92.7113
       6 -92.7013       7 -92.7081       8 -92.7003       9 -92.7104      10 -92.7084
      11 -92.7083      12 -92.7101      13 -92.6998      14 -92.7074      15 -92.7006
      16 -92.7104      17 -92.6816      18 -92.7195      19 -92.6539      20 -92.6896

 E-fermi :   6.3252     XC(G=0):  -8.0753     alpha+bet : -9.5232

 k-point     1 :       0.5000    0.0000    0.0000
  band No.  band energies     occupation
      1     -12.4316      2.00000
      2     -12.4233      2.00000
      3     -12.4151      2.00000
      4     -12.4050      2.00000
      5     -12.3955      2.00000
      6     -12.3840      2.00000
      7     -12.3695      2.00000
      8     -12.3561      2.00000
      9     -12.3446      2.00000
     10     -12.3406      2.00000
     11     -12.3376      2.00000
     12     -12.3333      2.00000
     13     -12.3299      2.00000
     14     -12.3253      2.00000
     15     -12.3166      2.00000
     16     -12.3117      2.00000
     17     -12.3064      2.00000
     18     -12.3004      2.00000
     19     -12.2945      2.00000
     20     -12.2933      2.00000
     21     -12.2908      2.00000
     22     -12.2883      2.00000
     23     -12.2826      2.00000
     24     -12.2818      2.00000
     25     -12.2766      2.00000
     26     -12.2608      2.00000
     27     -12.2587      2.00000
     28     -12.2576      2.00000
     29     -12.2538      2.00000
     30     -12.2504      2.00000
     31     -12.2504      2.00000
     32     -12.2453      2.00000
     33     -12.2435      2.00000
     34     -12.2417      2.00000
     35     -12.2367      2.00000
     36     -12.2335      2.00000
     37     -12.2328      2.00000
     38     -12.2275      2.00000
     39     -12.2245      2.00000
     40     -12.2218      2.00000
     41     -12.2214      2.00000
     42     -12.2168      2.00000
     43     -12.2109      2.00000
     44     -12.1969      2.00000
     45     -12.1954      2.00000
     46     -12.1943      2.00000
     47     -12.1788      2.00000
     48     -12.1606      2.00000
     49     -12.1428      2.00000
     50     -12.1263      2.00000
     51     -12.1067      2.00000
     52     -12.0761      2.00000
     53     -12.0734      2.00000
     54     -12.0690      2.00000
     55     -12.0625      2.00000
     56     -12.0588      2.00000
     57     -12.0540      2.00000
     58     -12.0417      2.00000
     59     -12.0388      2.00000
     60     -12.0328      2.00000
[...]
    236      16.9509      0.00000
    237      16.9523      0.00000
    238      17.0973      0.00000
    239      17.1326      0.00000
    240      17.2759      0.00000
    241      17.4527      0.00000
    242      17.4620      0.00000
    243      17.6726      0.00000
    244      17.7109      0.00000
    245      17.8477      0.00000
    246      18.0731      0.00000
    247      18.2449      0.00000
    248      18.3842      0.00000
    249      18.4748      0.00000
    250      18.6308      0.00000

[...]

 k-point   200 :       0.5000    0.0000    0.5000
  band No.  band energies     occupation
      1     -12.4316      2.00000
      2     -12.4233      2.00000
      3     -12.4151      2.00000
      4     -12.4050      2.00000
      5     -12.3955      2.00000
      6     -12.3840      2.00000
      7     -12.3695      2.00000
      8     -12.3561      2.00000
      9     -12.3446      2.00000
     10     -12.3406      2.00000
     11     -12.3376      2.00000
     12     -12.3333      2.00000
     13     -12.3299      2.00000
     14     -12.3253      2.00000
     15     -12.3166      2.00000
     16     -12.3117      2.00000
     17     -12.3064      2.00000
     18     -12.3003      2.00000
     19     -12.2945      2.00000
     20     -12.2933      2.00000
     21     -12.2908      2.00000
     22     -12.2883      2.00000
     23     -12.2826      2.00000
     24     -12.2818      2.00000
     25     -12.2766      2.00000
     26     -12.2608      2.00000
     27     -12.2587      2.00000
     28     -12.2576      2.00000
     29     -12.2538      2.00000
     30     -12.2504      2.00000
     31     -12.2504      2.00000
     32     -12.2452      2.00000
     33     -12.2435      2.00000
     34     -12.2417      2.00000
     35     -12.2367      2.00000
     36     -12.2335      2.00000
     37     -12.2328      2.00000
     38     -12.2275      2.00000
     39     -12.2245      2.00000
     40     -12.2218      2.00000
     41     -12.2214      2.00000
     42     -12.2168      2.00000
     43     -12.2109      2.00000
     44     -12.1969      2.00000
     45     -12.1954      2.00000
     46     -12.1943      2.00000
     47     -12.1788      2.00000
     48     -12.1606      2.00000
     49     -12.1428      2.00000
     50     -12.1263      2.00000
     51     -12.1067      2.00000
     52     -12.0761      2.00000
     53     -12.0734      2.00000
     54     -12.0690      2.00000
     55     -12.0625      2.00000
     56     -12.0588      2.00000
     57     -12.0540      2.00000
     58     -12.0417      2.00000
     59     -12.0388      2.00000
     60     -12.0328      2.00000
[...]
    236      16.7687      0.00000
    237      16.9278      0.00000
    238      17.0973      0.00000
    239      17.1649      0.00000
    240      17.3317      0.00000
    241      17.4616      0.00000
    242      17.4778      0.00000
    243      17.6275      0.00000
    244      17.8464      0.00000
    245      17.8595      0.00000
    246      17.9976      0.00000
    247      18.2436      0.00000
    248      18.2686      0.00000
    249      18.2941      0.00000
    250      18.6774      0.00000

 soft charge-density along one line, spin component           1
         0         1         2         3         4         5         6         7         8         9
 total charge-density along one line

------------------------ aborting loop because EDIFF is reached ----------------------------------------

 total charge

# of ion       s       p       d       tot
    1        1.346   0.815   9.802  11.963
    2        1.374   0.706   9.811  11.891
    3        1.359   0.763   9.809  11.930
    4        1.370   0.720   9.810  11.900
    5        1.362   0.754   9.809  11.926
    6        1.367   0.732   9.810  11.910
    7        1.364   0.750   9.809  11.923
    8        1.366   0.738   9.810  11.914
    9        1.365   0.745   9.810  11.920
   10        1.366   0.740   9.810  11.916
   11        1.366   0.740   9.810  11.916
   12        1.365   0.745   9.810  11.920
   13        1.366   0.738   9.810  11.914
   14        1.364   0.750   9.809  11.923
   15        1.367   0.732   9.810  11.910
   16        1.362   0.754   9.809  11.926
   17        1.369   0.720   9.810  11.900
   18        1.359   0.762   9.809  11.930
   19        1.374   0.705   9.811  11.891
   20        1.346   0.815   9.802  11.963
tot         27.276  14.925 196.182 238.383

  FORCE on cell =-STRESS in cart. coord.  units (eV):
  Direction    XX          YY          ZZ          XY          YZ          ZX
  Alpha Z   841.29232   841.29232   841.29232
  Ewald   66220.14858 66220.14858 66220.14858************************************
  Hartree 76163.77401 76163.77401 76163.77401************************************
  E(xc)   -1332.96540 -1332.96537 -1332.96539    -0.79200    -0.79200    -0.79197
  Local  ************************************297150.73085297150.73091297150.73012
  n-local  1402.79767  1299.27682  1299.27765     2.14598   120.06847     2.15340
  augment  2481.49227  2481.49337  2481.49224    -6.87827    -6.87828    -6.87717
  Kinetic  2967.30402  2769.32836  2769.32801    -0.56027   200.29874    -0.55952
  Fock        0.00000     0.00000     0.00000     0.00000     0.00000     0.00000
  Total     -44.73631   -44.73631   -44.73631    30.30884    30.30884    30.30884
  in kB     -91.88243   -91.88243   -91.88243    62.25033    62.25033    62.25033

 VOLUME and BASIS-vectors are now :
  energy-cutoff  :      400.00
  volume of cell :      780.08
      direct lattice vectors                 reciprocal lattice vectors
     2.465499973 -2.465499973  0.000000000     0.270398164 -0.135199082 -0.135199082
     0.000000000  2.465499973 -2.465499973     0.135199082  0.135199082 -0.270398164
    42.776672050 42.776672050 42.776672050     0.007792409  0.007792409  0.007792409

  length of vectors
     3.486743500  3.486743500 74.091369370     0.331168765  0.331168765  0.013496849

 FORCES acting on ions
    electron-ion (+dipol)            ewald-force                    non-local-force                 convergence-correction
   0.427E+04 0.427E+04 0.427E+04   -.431E+04 -.431E+04 -.431E+04   0.143E+01 0.143E+01 0.143E+01   0.365E+02 0.365E+02 0.365E+02
   0.377E+04 0.377E+04 0.377E+04   -.380E+04 -.380E+04 -.380E+04   -.742E+00 -.742E+00 -.742E+00   0.307E+02 0.307E+02 0.307E+02
   0.334E+04 0.334E+04 0.334E+04   -.337E+04 -.337E+04 -.337E+04   0.216E+00 0.216E+00 0.216E+00   0.262E+02 0.262E+02 0.262E+02
   0.290E+04 0.290E+04 0.290E+04   -.292E+04 -.292E+04 -.292E+04   0.390E-01 0.390E-01 0.390E-01   0.237E+02 0.237E+02 0.237E+02
   0.246E+04 0.246E+04 0.246E+04   -.248E+04 -.248E+04 -.248E+04   -.102E+00 -.102E+00 -.102E+00   0.190E+02 0.190E+02 0.191E+02
   0.201E+04 0.201E+04 0.201E+04   -.203E+04 -.203E+04 -.203E+04   0.149E+00 0.149E+00 0.149E+00   0.161E+02 0.161E+02 0.161E+02
   0.156E+04 0.156E+04 0.156E+04   -.158E+04 -.158E+04 -.158E+04   -.183E+00 -.183E+00 -.183E+00   0.122E+02 0.122E+02 0.122E+02
   0.112E+04 0.112E+04 0.112E+04   -.113E+04 -.113E+04 -.113E+04   0.222E+00 0.222E+00 0.222E+00   0.912E+01 0.911E+01 0.912E+01
   0.668E+03 0.668E+03 0.668E+03   -.673E+03 -.673E+03 -.673E+03   -.228E+00 -.228E+00 -.228E+00   0.505E+01 0.505E+01 0.505E+01
   0.225E+03 0.225E+03 0.225E+03   -.228E+03 -.228E+03 -.228E+03   0.247E+00 0.247E+00 0.247E+00   0.211E+01 0.211E+01 0.211E+01
   -.225E+03 -.225E+03 -.225E+03   0.228E+03 0.228E+03 0.228E+03   -.247E+00 -.247E+00 -.247E+00   -.211E+01 -.211E+01 -.211E+01
   -.668E+03 -.668E+03 -.668E+03   0.673E+03 0.673E+03 0.673E+03   0.228E+00 0.228E+00 0.228E+00   -.505E+01 -.505E+01 -.505E+01
   -.112E+04 -.112E+04 -.112E+04   0.113E+04 0.113E+04 0.113E+04   -.222E+00 -.222E+00 -.222E+00   -.912E+01 -.912E+01 -.911E+01
   -.156E+04 -.156E+04 -.156E+04   0.158E+04 0.158E+04 0.158E+04   0.183E+00 0.183E+00 0.183E+00   -.122E+02 -.122E+02 -.122E+02
   -.201E+04 -.201E+04 -.201E+04   0.203E+04 0.203E+04 0.203E+04   -.149E+00 -.149E+00 -.149E+00   -.161E+02 -.161E+02 -.161E+02
   -.246E+04 -.246E+04 -.246E+04   0.248E+04 0.248E+04 0.248E+04   0.102E+00 0.102E+00 0.102E+00   -.190E+02 -.190E+02 -.190E+02
   -.290E+04 -.290E+04 -.290E+04   0.292E+04 0.292E+04 0.292E+04   -.390E-01 -.390E-01 -.390E-01   -.237E+02 -.237E+02 -.237E+02
   -.334E+04 -.334E+04 -.334E+04   0.337E+04 0.337E+04 0.337E+04   -.216E+00 -.216E+00 -.216E+00   -.262E+02 -.262E+02 -.262E+02
   -.377E+04 -.377E+04 -.377E+04   0.380E+04 0.380E+04 0.380E+04   0.742E+00 0.742E+00 0.742E+00   -.307E+02 -.307E+02 -.307E+02
   -.427E+04 -.427E+04 -.427E+04   0.431E+04 0.431E+04 0.431E+04   -.143E+01 -.143E+01 -.143E+01   -.365E+02 -.365E+02 -.365E+02
   -.992E-02 -.970E-02 0.196E-01   -.819E-11 0.546E-11 0.637E-11   -.111E-14 -.666E-15 -.111E-14   0.167E-01 0.127E-01 0.290E-01

 POSITION                                       TOTAL-FORCE (eV/Angst)
      1.68649     -0.77901     -0.77901        -1.454103     -1.454103     -1.454103
      1.61073      1.61073      1.61072         0.279730      0.279730      0.279730
      4.09943      4.09943      1.63393        -0.005750     -0.005750     -0.005750
      6.56973      4.10423      4.10423        -0.006914     -0.006914     -0.006914
      6.57480      6.57480      6.57480        -0.038459     -0.038459     -0.038459
      9.04171      9.04171      6.57621         0.009341      0.009341      0.009341
     11.50549      9.03999      9.03999        -0.011809     -0.011809     -0.011809
     11.50798     11.50798     11.50798         0.002566      0.002566      0.002566
     13.96818     13.96818     11.50268         0.014456      0.014456      0.014456
     16.43972     13.97422     13.97422        -0.013212     -0.013212     -0.013212
     16.43361     16.43361     16.43361         0.013212      0.013212      0.013212
     18.90515     18.90515     16.43965        -0.014456     -0.014456     -0.014456
     21.36535     18.89985     18.89985        -0.002566     -0.002566     -0.002566
     21.36784     21.36784     21.36784         0.011809      0.011809      0.011809
     23.83162     23.83162     21.36612        -0.009341     -0.009341     -0.009341
     26.29853     23.83303     23.83303         0.038459      0.038459      0.038459
     26.30360     26.30360     26.30360         0.006914      0.006914      0.006914
     28.77390     28.77390     26.30840         0.005750      0.005750      0.005750
     31.26261     28.79711     28.79711        -0.279730     -0.279730     -0.279730
     31.18684     31.18684     31.18684         1.454103      1.454103      1.454103
    total drift:                                0.006811      0.003001      0.048565

  FREE ENERGIE OF THE ION-ELECTRON SYSTEM (eV)
  free  energy   TOTEN  =       -81.05524938 eV

  energy  without entropy=      -81.01660848  energy(sigma->0) =      -81.03592893

 writing wavefunctions

 total charge

# of ion       s       p       d       tot
    1        1.346   0.815   9.802  11.963
    2        1.374   0.706   9.811  11.891
    3        1.359   0.763   9.809  11.930
    4        1.370   0.720   9.810  11.900
    5        1.362   0.754   9.809  11.926
    6        1.367   0.732   9.810  11.910
    7        1.364   0.750   9.809  11.923
    8        1.366   0.738   9.810  11.914
    9        1.365   0.745   9.810  11.920
   10        1.366   0.740   9.810  11.916
   11        1.366   0.740   9.810  11.916
   12        1.365   0.745   9.810  11.920
   13        1.366   0.738   9.810  11.914
   14        1.364   0.750   9.809  11.923
   15        1.367   0.732   9.810  11.910
   16        1.362   0.754   9.809  11.926
   17        1.369   0.720   9.810  11.900
   18        1.359   0.762   9.809  11.930
   19        1.374   0.705   9.811  11.891
   20        1.346   0.815   9.802  11.963
tot         27.276  14.925 196.182 238.383