 vasp.5.4.4.18Apr17-6-g9f103f2a35 (build Sep 13 2019 13:34:59) complex
 executed on             LinuxGNU date 2020.11.20  19:46:15

 INCAR:
 POTCAR:    PAW_PBE Pb_d 06Sep2000
 POTCAR:    PAW_PBE Pb_d 06Sep2000
   VRHFIN =Pb:

   TITEL  = PAW_PBE Pb_d 06Sep2000
   POMASS =  207.200; ZVAL   =   14.000    mass and valenz
   ENMAX  =  237.835; ENMIN  =  178.376 eV

  PAW_PBE Pb_d 06Sep2000                :

 POSCAR: Pb_2Dslab_20L
  positions in direct lattice
  velocities in cartesian coordinates
 exchange correlation table for  LEXCH =        8
   RHO(1)=    0.500       N(1)  =     2000
   RHO(2)=  100.500       N(2)  =     4000

 ion  position               nearest neighbor table
   1  0.667  0.333  0.001-   2 3.38   2 3.38   2 3.38
   2  0.000  0.000  0.038-   1 3.38   1 3.38   1 3.38   3 3.52   3 3.52   3 3.52
   3  0.333  0.667  0.077-   4 3.49   4 3.49   4 3.49   2 3.52   2 3.52   2 3.52
   4  0.667  0.333  0.115-   3 3.49   3 3.49   3 3.49   5 3.49   5 3.49   5 3.49
   5  0.000  0.000  0.154-   6 3.49   6 3.49   6 3.49   4 3.49   4 3.49   4 3.49
   6  0.333  0.667  0.192-   7 3.48   7 3.48   7 3.48   5 3.49   5 3.49   5 3.49
   7  0.667  0.333  0.231-   6 3.48   6 3.48   6 3.48   8 3.49   8 3.49   8 3.49
   8  0.000  0.000  0.269-   9 3.48   9 3.48   9 3.48   7 3.49   7 3.49   7 3.49
   9  0.333  0.667  0.307-   8 3.48   8 3.48   8 3.48  10 3.50  10 3.50  10 3.50
  10  0.667  0.333  0.346-  11 3.48  11 3.48  11 3.48   9 3.50   9 3.50   9 3.50
  11  0.000  0.000  0.384-  10 3.48  10 3.48  10 3.48  12 3.50  12 3.50  12 3.50
  12  0.333  0.667  0.423-  13 3.48  13 3.48  13 3.48  11 3.50  11 3.50  11 3.50
  13  0.667  0.333  0.461-  12 3.48  12 3.48  12 3.48  14 3.49  14 3.49  14 3.49
  14  0.000  0.000  0.500-  15 3.48  15 3.48  15 3.48  13 3.49  13 3.49  13 3.49
  15  0.333  0.667  0.538-  14 3.48  14 3.48  14 3.48  16 3.49  16 3.49  16 3.49
  16  0.667  0.333  0.576-  15 3.49  15 3.49  15 3.49  17 3.49  17 3.49  17 3.49
  17  0.000  0.000  0.615-  18 3.49  18 3.49  18 3.49  16 3.49  16 3.49  16 3.49
  18  0.333  0.667  0.653-  17 3.49  17 3.49  17 3.49  19 3.52  19 3.52  19 3.52
  19  0.667  0.333  0.692-  20 3.38  20 3.38  20 3.38  18 3.52  18 3.52  18 3.52
  20  0.000  0.000  0.729-  19 3.38  19 3.38  19 3.38

  LATTYP: Found a hexagonal cell.
 ALAT       =     3.4867435000
 C/A-ratio  =    21.2494464735

  Lattice vectors:

 A1 = (   2.4654999731,  -2.4654999731,   0.0000000000)
 A2 = (   0.0000000000,   2.4654999731,  -2.4654999731)
 A3 = (  42.7766720505,  42.7766720505,  42.7766720505)

Analysis of symmetry for initial positions (statically):
 Subroutine PRICEL returns:
 Original cell was already a primitive cell.

 Routine SETGRP: Setting up the symmetry group for a
 hexagonal supercell.

 Subroutine GETGRP returns: Found 12 space group operations
 (whereof  6 operations were pure point group operations)
 out of a pool of 24 trial point group operations.

The static configuration has the point symmetry C_3v.
 The point group associated with its full space group is D_3d.

Analysis of symmetry for dynamics (positions and initial velocities):
 Subroutine PRICEL returns:
 Original cell was already a primitive cell.

 Routine SETGRP: Setting up the symmetry group for a
 hexagonal supercell.

 Subroutine GETGRP returns: Found 12 space group operations
 (whereof  6 operations were pure point group operations)
 out of a pool of 24 trial point group operations.

The dynamic configuration has the point symmetry C_3v.
 The point group associated with its full space group is D_3d.

 Subroutine INISYM returns: Found 12 space group operations
 (whereof  6 operations are pure point group operations),
 and found     1 'primitive' translations

 KPOINTS: Pb_2Dslab_20L

Automatic generation of k-mesh.
Space group operators:
 irot       det(A)        alpha          n_x          n_y          n_z        tau_x        tau_y        tau_z
    1     1.000000     0.000000     1.000000     0.000000     0.000000     0.000000     0.000000     0.000000
    2     1.000000   120.000000    -0.577350    -0.577350    -0.577350     0.000000     0.000000     0.000000
    3     1.000000   120.000000     0.577350     0.577350     0.577350     0.000000     0.000000     0.000000
    4    -1.000000   180.000000     0.707107    -0.707107     0.000000     0.000000     0.000000     0.000000
    5    -1.000000   180.000000     0.000000     0.707107    -0.707107     0.000000     0.000000     0.000000
    6    -1.000000   180.000000     0.707107    -0.000000    -0.707107     0.000000     0.000000     0.000000
    7    -1.000000     0.000000     1.000000     0.000000     0.000000     0.666667     0.333334     0.730063
    8    -1.000000   120.000000    -0.577350    -0.577350    -0.577350     0.666666     0.333334     0.730063
    9    -1.000000   120.000000     0.577350     0.577350     0.577350     0.666667     0.333334     0.730063
   10     1.000000   180.000000     0.707107    -0.707107     0.000000     0.666667     0.333334     0.730063
   11     1.000000   180.000000     0.000000     0.707107    -0.707107     0.666667     0.333334     0.730063
   12     1.000000   180.000000     0.707107    -0.000000    -0.707107     0.666666     0.333334     0.730063

 Subroutine IBZKPT returns following result:

 Found     65 irreducible k-points:

 Following reciprocal coordinates:
            Coordinates               Weight
  0.000000  0.000000  0.000000      1.000000
  0.040000  0.000000  0.000000      6.000000
  0.080000  0.000000  0.000000      6.000000
  0.120000  0.000000  0.000000      6.000000
  0.160000  0.000000  0.000000      6.000000
  0.200000  0.000000  0.000000      6.000000
  0.240000  0.000000  0.000000      6.000000
  0.280000  0.000000  0.000000      6.000000
  0.320000  0.000000  0.000000      6.000000
  0.360000  0.000000  0.000000      6.000000
  0.400000  0.000000  0.000000      6.000000
  0.440000  0.000000  0.000000      6.000000
  0.480000  0.000000  0.000000      6.000000
  0.040000  0.040000  0.000000      6.000000
  0.080000  0.040000  0.000000     12.000000
  0.120000  0.040000  0.000000     12.000000
  0.160000  0.040000  0.000000     12.000000
  0.200000  0.040000  0.000000     12.000000
  0.240000  0.040000  0.000000     12.000000
  0.280000  0.040000  0.000000     12.000000
  0.320000  0.040000  0.000000     12.000000
  0.360000  0.040000  0.000000     12.000000
  0.400000  0.040000  0.000000     12.000000
  0.440000  0.040000  0.000000     12.000000
  0.480000  0.040000  0.000000      6.000000
  0.080000  0.080000  0.000000      6.000000
  0.120000  0.080000  0.000000     12.000000
  0.160000  0.080000  0.000000     12.000000
  0.200000  0.080000  0.000000     12.000000
  0.240000  0.080000  0.000000     12.000000
  0.280000  0.080000  0.000000     12.000000
  0.320000  0.080000  0.000000     12.000000
  0.360000  0.080000  0.000000     12.000000
  0.400000  0.080000  0.000000     12.000000
  0.440000  0.080000  0.000000     12.000000
  0.120000  0.120000  0.000000      6.000000
  0.160000  0.120000  0.000000     12.000000
  0.200000  0.120000  0.000000     12.000000
  0.240000  0.120000  0.000000     12.000000
  0.280000  0.120000  0.000000     12.000000
  0.320000  0.120000  0.000000     12.000000
  0.360000  0.120000  0.000000     12.000000
  0.400000  0.120000  0.000000     12.000000
  0.440000  0.120000  0.000000      6.000000
  0.160000  0.160000  0.000000      6.000000
  0.200000  0.160000  0.000000     12.000000
  0.240000  0.160000  0.000000     12.000000
  0.280000  0.160000  0.000000     12.000000
  0.320000  0.160000  0.000000     12.000000
  0.360000  0.160000  0.000000     12.000000
  0.400000  0.160000  0.000000     12.000000
  0.200000  0.200000  0.000000      6.000000
  0.240000  0.200000  0.000000     12.000000
  0.280000  0.200000  0.000000     12.000000
  0.320000  0.200000  0.000000     12.000000
  0.360000  0.200000  0.000000     12.000000
  0.400000  0.200000  0.000000      6.000000
  0.240000  0.240000  0.000000      6.000000
  0.280000  0.240000  0.000000     12.000000
  0.320000  0.240000  0.000000     12.000000
  0.360000  0.240000  0.000000     12.000000
  0.280000  0.280000  0.000000      6.000000
  0.320000  0.280000 -0.000000     12.000000
  0.360000  0.280000  0.000000      6.000000
  0.320000  0.320000  0.000000      6.000000

 Following cartesian coordinates:
            Coordinates               Weight
  0.000000  0.000000 -0.000000      1.000000
  0.010816 -0.005408 -0.005408      6.000000
  0.021632 -0.010816 -0.010816      6.000000
  0.032448 -0.016224 -0.016224      6.000000
  0.043264 -0.021632 -0.021632      6.000000
  0.054080 -0.027040 -0.027040      6.000000
  0.064896 -0.032448 -0.032448      6.000000
  0.075711 -0.037856 -0.037856      6.000000
  0.086527 -0.043264 -0.043264      6.000000
  0.097343 -0.048672 -0.048672      6.000000
  0.108159 -0.054080 -0.054080      6.000000
  0.118975 -0.059488 -0.059488      6.000000
  0.129791 -0.064896 -0.064896      6.000000
  0.016224  0.000000 -0.016224      6.000000
  0.027040 -0.005408 -0.021632     12.000000
  0.037856 -0.010816 -0.027040     12.000000
  0.048672 -0.016224 -0.032448     12.000000
  0.059488 -0.021632 -0.037856     12.000000
  0.070304 -0.027040 -0.043264     12.000000
  0.081119 -0.032448 -0.048672     12.000000
  0.091935 -0.037856 -0.054080     12.000000
  0.102751 -0.043264 -0.059488     12.000000
  0.113567 -0.048672 -0.064896     12.000000
  0.124383 -0.054080 -0.070304     12.000000
  0.135199 -0.059488 -0.075711      6.000000
  0.032448  0.000000 -0.032448      6.000000
  0.043264 -0.005408 -0.037856     12.000000
  0.054080 -0.010816 -0.043264     12.000000
  0.064896 -0.016224 -0.048672     12.000000
  0.075711 -0.021632 -0.054080     12.000000
  0.086527 -0.027040 -0.059488     12.000000
  0.097343 -0.032448 -0.064896     12.000000
  0.108159 -0.037856 -0.070304     12.000000
  0.118975 -0.043264 -0.075711     12.000000
  0.129791 -0.048672 -0.081119     12.000000
  0.048672  0.000000 -0.048672      6.000000
  0.059488 -0.005408 -0.054080     12.000000
  0.070304 -0.010816 -0.059488     12.000000
  0.081119 -0.016224 -0.064896     12.000000
  0.091935 -0.021632 -0.070304     12.000000
  0.102751 -0.027040 -0.075711     12.000000
  0.113567 -0.032448 -0.081119     12.000000
  0.124383 -0.037856 -0.086527     12.000000
  0.135199 -0.043264 -0.091935      6.000000
  0.064896 -0.000000 -0.064896      6.000000
  0.075711 -0.005408 -0.070304     12.000000
  0.086527 -0.010816 -0.075711     12.000000
  0.097343 -0.016224 -0.081119     12.000000
  0.108159 -0.021632 -0.086527     12.000000
  0.118975 -0.027040 -0.091935     12.000000
  0.129791 -0.032448 -0.097343     12.000000
  0.081119  0.000000 -0.081119      6.000000
  0.091935 -0.005408 -0.086527     12.000000
  0.102751 -0.010816 -0.091935     12.000000
  0.113567 -0.016224 -0.097343     12.000000
  0.124383 -0.021632 -0.102751     12.000000
  0.135199 -0.027040 -0.108159      6.000000
  0.097343  0.000000 -0.097343      6.000000
  0.108159 -0.005408 -0.102751     12.000000
  0.118975 -0.010816 -0.108159     12.000000
  0.129791 -0.016224 -0.113567     12.000000
  0.113567 -0.000000 -0.113567      6.000000
[...]
   IXMIN=   -6   IYMIN=   -5   IZMIN= -120

 parallel 3D FFT for wavefunctions:
    minimum data exchange during FFTs selected (reduces bandwidth)
 parallel 3D FFT for charge:
    minimum data exchange during FFTs selected (reduces bandwidth)

 Broyden mixing: mesh for mixing (old mesh)
   NGX = 11   NGY = 11   NGZ =241
  (NGX  = 36   NGY  = 36   NGZ  =756)
  gives a total of  29161 points

 initial charge density was supplied:
 charge density of overlapping atoms calculated
 number of electron     280.0000000 magnetization
 keeping initial charge density in first step

 Maximum index for augmentation-charges          801 (set IRDMAX)

 First call to EWALD:  gamma=   0.193
 Maximum number of real-space cells 7x 7x 1
 Maximum number of reciprocal cells 1x 1x19

--------------------------------------- Iteration      1(   1)  ---------------------------------------

 eigenvalue-minimisations  : 32670
 total energy-change (2. order) : 0.3454177E+04  (-0.1053067E+05)
 number of electron     280.0000000 magnetization
 augmentation part      280.0000000 magnetization

 Free energy of the ion-electron system (eV)
  alpha Z        PSCENC =       841.29232037
  Ewald energy   TEWEN  =    198660.53375098
  -Hartree energ DENC   =   -231428.50577126
  -exchange      EXHF   =         0.00000000
  -V(xc)+E(xc)   XCENC  =       760.73929483
  PAW double counting   =     28708.20636287   -28374.82945683
  entropy T*S    EENTRO =         0.00237605
  eigenvalues    EBANDS =      1054.50558568
  atomic energy  EATOM  =     33232.23268158
  Solvation  Ediel_sol  =         0.00000000
  free energy    TOTEN  =      3454.17714428 eV

  energy without entropy =     3454.17476823  energy(sigma->0) =     3454.17635227

[...]

 eigenvalue-minimisations  : 32500
 total energy-change (2. order) :-0.3041816E+04  (-0.2914234E+04)
 number of electron     280.0000000 magnetization
 augmentation part      280.0000000 magnetization

[...]

 Broyden mixing:
  rms(total) = 0.24515E+00    rms(broyden)= 0.24504E+00
  rms(prec ) = 0.25357E+00
  weight for this iteration     100.00

[...]

 eigenvalues of (default mixing * dielectric matrix)
  average eigenvalue GAMMA=   0.4091
  0.4091

[...]

 eigenvalue-minimisations  : 41660
 total energy-change (2. order) : 0.1739337E-03  (-0.5603357E-04)
 number of electron     279.9999487 magnetization
 augmentation part      111.3322402 magnetization

[...]

 Broyden mixing:
  rms(total) = 0.38496E-04    rms(broyden)= 0.34265E-04
  rms(prec ) = 0.39837E-04
  weight for this iteration     100.00
  WARNING: grid for Broyden might be to small

[...]

 Broyden mixing:
  rms(total) = 0.41846E-04    rms(broyden)= 0.37987E-04
  rms(prec ) = 0.47030E-04
  weight for this iteration     100.00

[...]

 Broyden mixing:
  rms(total) = 0.24514E-04    rms(broyden)= 0.17119E-04
  rms(prec ) = 0.21746E-04
  weight for this iteration     100.00
  WARNING: grid for Broyden might be to small

 eigenvalues of (default mixing * dielectric matrix)
  average eigenvalue GAMMA=   1.6258
  7.5815  5.0401  2.8257  2.8257  2.2167  2.2167  0.0382  1.4606  1.4606  0.1497
  0.3327  0.9991  0.9991  0.9038  0.9038  0.8327  0.8327  0.7549  0.6157  0.5825
  0.5701

[...]

--------------------------------------- Iteration      1(  27)  ---------------------------------------

 eigenvalue-minimisations  : 26120
 total energy-change (2. order) :-0.7019480E-06  (-0.4577967E-08)
 number of electron     279.9999487 magnetization
 augmentation part      111.3322356 magnetization

 Free energy of the ion-electron system (eV)
  alpha Z        PSCENC =       841.29232037
  Ewald energy   TEWEN  =    198660.53375098
  -Hartree energ DENC   =   -231428.50307622
  -exchange      EXHF   =         0.00000000
  -V(xc)+E(xc)   XCENC  =       757.33609160
  PAW double counting   =     30110.48501820   -29789.40956616
  entropy T*S    EENTRO =         0.00124649
  eigenvalues    EBANDS =     -2454.58684443
  atomic energy  EATOM  =     33232.23268158
  Solvation  Ediel_sol  =         0.00000000
  free energy    TOTEN  =       -70.61837758 eV

  energy without entropy =      -70.61962407  energy(sigma->0) =      -70.61879308

 average (electrostatic) potential at core
  the test charge radii are     1.1541
  (the norm of the test charge is              1.0000)
       1 -92.6910       2 -92.6589       3 -92.7280       4 -92.6889       5 -92.7127
       6 -92.6991       7 -92.7059       8 -92.6963       9 -92.7049      10 -92.7017
      11 -92.7017      12 -92.7048      13 -92.6961      14 -92.7056      15 -92.6988
      16 -92.7124      17 -92.6887      18 -92.7279      19 -92.6588      20 -92.6909

 E-fermi :   4.8653     XC(G=0):  -8.0775     alpha+bet : -9.5232

 k-point     1 :       0.0000    0.0000    0.0000
  band No.  band energies     occupation
      1     -12.2990      2.00000
      2     -12.2988      2.00000
      3     -12.2915      2.00000
      4     -12.2907      2.00000
      5     -12.2885      2.00000
      6     -12.2847      2.00000
      7     -12.2808      2.00000
      8     -12.2770      2.00000
      9     -12.2704      2.00000
     10     -12.2647      2.00000
     11     -12.2646      2.00000
     12     -12.2630      2.00000
     13     -12.2630      2.00000
     14     -12.2627      2.00000
     15     -12.2627      2.00000
     16     -12.2617      2.00000
     17     -12.2608      2.00000
     18     -12.2602      2.00000
     19     -12.2578      2.00000
     20     -12.2576      2.00000
     21     -12.2575      2.00000
     22     -12.2575      2.00000
     23     -12.2536      2.00000
     24     -12.2534      2.00000
     25     -12.2528      2.00000
     26     -12.2528      2.00000
     27     -12.2480      2.00000
     28     -12.2480      2.00000
     29     -12.2473      2.00000
     30     -12.2473      2.00000
     31     -12.2456      2.00000
     32     -12.2456      2.00000
     33     -12.2438      2.00000
     34     -12.2438      2.00000
     35     -12.2388      2.00000
     36     -12.2388      2.00000
     37     -12.2387      2.00000
     38     -12.2387      2.00000
     39     -12.2334      2.00000
     40     -12.2334      2.00000
     41     -12.2321      2.00000
     42     -12.2321      2.00000
     43     -12.2297      2.00000
     44     -12.2297      2.00000
     45     -12.2276      2.00000
     46     -12.2276      2.00000
     47     -12.2241      2.00000
     48     -12.2241      2.00000
     49     -12.2226      2.00000
     50     -12.2226      2.00000
     51     -12.2191      2.00000
     52     -12.2190      2.00000
     53     -12.2110      2.00000
     54     -12.2110      2.00000
     55     -12.2109      2.00000
     56     -12.2109      2.00000
     57     -12.2070      2.00000
     58     -12.2070      2.00000
     59     -12.2069      2.00000
     60     -12.2069      2.00000
[...]
    236      16.6582      0.00000
    237      16.7706      0.00000
    238      16.7989      0.00000
    239      16.7990      0.00000
    240      16.9511      0.00000
    241      16.9823      0.00000
    242      16.9823      0.00000
    243      16.9876      0.00000
    244      17.1903      0.00000
    245      17.1903      0.00000
    246      17.2455      0.00000
    247      17.3027      0.00000
    248      17.4095      0.00000
    249      17.4117      0.00000
    250      17.4202      0.00000

[...]

 k-point    65 :       0.3200    0.3200    0.0000
  band No.  band energies     occupation
      1     -12.3202      2.00000
      2     -12.3200      2.00000
      3     -12.3151      2.00000
      4     -12.3148      2.00000
      5     -12.3072      2.00000
      6     -12.3065      2.00000
      7     -12.3059      2.00000
      8     -12.3013      2.00000
      9     -12.2969      2.00000
     10     -12.2947      2.00000
     11     -12.2937      2.00000
     12     -12.2852      2.00000
     13     -12.2838      2.00000
     14     -12.2834      2.00000
     15     -12.2741      2.00000
     16     -12.2718      2.00000
     17     -12.2715      2.00000
     18     -12.2655      2.00000
     19     -12.2633      2.00000
     20     -12.2317      2.00000
     21     -12.2296      2.00000
     22     -12.2188      2.00000
     23     -12.2159      2.00000
     24     -12.2102      2.00000
     25     -12.2036      2.00000
     26     -12.2021      2.00000
     27     -12.1978      2.00000
     28     -12.1896      2.00000
     29     -12.1885      2.00000
     30     -12.1853      2.00000
     31     -12.1788      2.00000
     32     -12.1744      2.00000
     33     -12.1738      2.00000
     34     -12.1703      2.00000
     35     -12.1677      2.00000
     36     -12.1670      2.00000
     37     -12.1630      2.00000
     38     -12.1589      2.00000
     39     -12.1523      2.00000
     40     -12.1433      2.00000
     41     -12.1422      2.00000
     42     -12.1338      2.00000
     43     -12.1325      2.00000
     44     -12.1302      2.00000
     45     -12.1261      2.00000
     46     -12.1226      2.00000
     47     -12.1222      2.00000
     48     -12.1213      2.00000
     49     -12.1212      2.00000
     50     -12.1192      2.00000
     51     -12.1190      2.00000
     52     -12.1130      2.00000
     53     -12.1127      2.00000
     54     -12.1091      2.00000
     55     -12.1048      2.00000
     56     -12.0996      2.00000
     57     -12.0987      2.00000
     58     -12.0951      2.00000
     59     -12.0949      2.00000
     60     -12.0925      2.00000
[...]
    236      18.3595      0.00000
    237      18.3653      0.00000
    238      18.4417      0.00000
    239      18.4607      0.00000
    240      18.5295      0.00000
    241      18.5383      0.00000
    242      18.6239      0.00000
    243      18.6414      0.00000
    244      18.7519      0.00000
    245      18.7759      0.00000
    246      18.7762      0.00000
    247      18.7969      0.00000
    248      18.8644      0.00000
    249      18.8777      0.00000
    250      18.9296      0.00000

 soft charge-density along one line, spin component           1
         0         1         2         3         4         5         6         7         8         9
 total charge-density along one line

------------------------ aborting loop because EDIFF is reached ----------------------------------------

  FORCE on cell =-STRESS in cart. coord.  units (eV):
  Direction    XX          YY          ZZ          XY          YZ          ZX
  Alpha Z   841.29232   841.29232   841.29232
  Ewald   66220.14858 66220.14858 66220.14858************************************
  Hartree 77142.78654 77142.78654 77142.78654************************************
  E(xc)   -1333.25389 -1333.25387 -1333.25389    -0.13433    -0.13433    -0.13431
  Local  ************************************299194.82279299194.82285299194.82205
  n-local  1462.74179  1329.97068  1377.25077   -17.05039    72.02459   -55.38858
  augment  2469.76391  2469.76501  2469.76389    -0.11164    -0.11166    -0.11055
  Kinetic  2963.83743  2786.58770  2810.25374   -42.44818   104.05618   -59.96441
  Fock        0.00000     0.00000     0.00000     0.00000     0.00000     0.00000
  Total      10.15453    10.15453    10.15453     0.07228     0.07228     0.07228
  in kB      20.85606    20.85606    20.85606     0.14845     0.14845     0.14845

 VOLUME and BASIS-vectors are now :
  energy-cutoff  :      400.00
  volume of cell :      780.08
      direct lattice vectors                 reciprocal lattice vectors
     2.465499973 -2.465499973  0.000000000     0.270398164 -0.135199082 -0.135199082
     0.000000000  2.465499973 -2.465499973     0.135199082  0.135199082 -0.270398164
    42.776672050 42.776672050 42.776672050     0.007792409  0.007792409  0.007792409

  length of vectors
     3.486743500  3.486743500 74.091369370     0.331168765  0.331168765  0.013496849

 FORCES acting on ions
    electron-ion (+dipol)            ewald-force                    non-local-force                 convergence-correction
   0.430E+04 0.430E+04 0.430E+04   -.431E+04 -.431E+04 -.431E+04   0.250E+01 0.250E+01 0.250E+01   0.862E-03 0.862E-03 0.862E-03
   0.380E+04 0.380E+04 0.380E+04   -.380E+04 -.380E+04 -.380E+04   -.116E+01 -.116E+01 -.116E+01   0.193E-02 0.193E-02 0.193E-02
   0.337E+04 0.337E+04 0.337E+04   -.337E+04 -.337E+04 -.337E+04   0.472E+00 0.472E+00 0.472E+00   0.234E-02 0.234E-02 0.234E-02
   0.292E+04 0.292E+04 0.292E+04   -.292E+04 -.292E+04 -.292E+04   -.192E+00 -.192E+00 -.192E+00   0.225E-02 0.225E-02 0.225E-02
   0.248E+04 0.248E+04 0.248E+04   -.248E+04 -.248E+04 -.248E+04   0.803E-01 0.803E-01 0.803E-01   0.211E-02 0.211E-02 0.211E-02
   0.203E+04 0.203E+04 0.203E+04   -.203E+04 -.203E+04 -.203E+04   0.173E-01 0.173E-01 0.173E-01   0.184E-02 0.184E-02 0.184E-02
   0.158E+04 0.158E+04 0.158E+04   -.158E+04 -.158E+04 -.158E+04   -.673E-01 -.673E-01 -.673E-01   0.163E-02 0.163E-02 0.163E-02
   0.113E+04 0.113E+04 0.113E+04   -.113E+04 -.113E+04 -.113E+04   0.108E+00 0.108E+00 0.108E+00   0.123E-02 0.123E-02 0.123E-02
   0.673E+03 0.673E+03 0.673E+03   -.673E+03 -.673E+03 -.673E+03   -.142E+00 -.142E+00 -.142E+00   0.675E-03 0.675E-03 0.675E-03
   0.227E+03 0.227E+03 0.227E+03   -.228E+03 -.228E+03 -.228E+03   0.154E+00 0.154E+00 0.154E+00   0.184E-03 0.184E-03 0.184E-03
   -.227E+03 -.227E+03 -.227E+03   0.228E+03 0.228E+03 0.228E+03   -.154E+00 -.154E+00 -.154E+00   -.187E-03 -.187E-03 -.187E-03
   -.673E+03 -.673E+03 -.673E+03   0.673E+03 0.673E+03 0.673E+03   0.142E+00 0.142E+00 0.142E+00   -.678E-03 -.678E-03 -.678E-03
   -.113E+04 -.113E+04 -.113E+04   0.113E+04 0.113E+04 0.113E+04   -.108E+00 -.108E+00 -.108E+00   -.123E-02 -.123E-02 -.123E-02
   -.158E+04 -.158E+04 -.158E+04   0.158E+04 0.158E+04 0.158E+04   0.673E-01 0.673E-01 0.673E-01   -.163E-02 -.163E-02 -.163E-02
   -.203E+04 -.203E+04 -.203E+04   0.203E+04 0.203E+04 0.203E+04   -.173E-01 -.173E-01 -.173E-01   -.184E-02 -.184E-02 -.184E-02
   -.248E+04 -.248E+04 -.248E+04   0.248E+04 0.248E+04 0.248E+04   -.803E-01 -.803E-01 -.803E-01   -.211E-02 -.211E-02 -.211E-02
   -.292E+04 -.292E+04 -.292E+04   0.292E+04 0.292E+04 0.292E+04   0.192E+00 0.192E+00 0.192E+00   -.225E-02 -.225E-02 -.225E-02
   -.337E+04 -.337E+04 -.337E+04   0.337E+04 0.337E+04 0.337E+04   -.472E+00 -.472E+00 -.472E+00   -.234E-02 -.234E-02 -.234E-02
   -.380E+04 -.380E+04 -.380E+04   0.380E+04 0.380E+04 0.380E+04   0.116E+01 0.116E+01 0.116E+01   -.193E-02 -.193E-02 -.193E-02
   -.430E+04 -.430E+04 -.430E+04   0.431E+04 0.431E+04 0.431E+04   -.250E+01 -.250E+01 -.250E+01   -.861E-03 -.861E-03 -.861E-03
   -.998E-02 -.976E-02 0.196E-01   -.819E-11 0.546E-11 0.637E-11   0.444E-15 0.444E-15 -.444E-15   -.198E-05 -.198E-05 -.206E-05

 POSITION                                       TOTAL-FORCE (eV/Angst)
      1.68649     -0.77901     -0.77901        -0.124283     -0.124283     -0.124283
      1.61073      1.61073      1.61072         0.018037      0.018037      0.018037
      4.09943      4.09943      1.63393        -0.003454     -0.003454     -0.003454
      6.56973      4.10423      4.10423        -0.001398     -0.001398     -0.001398
      6.57480      6.57480      6.57480        -0.002009     -0.002009     -0.002009
      9.04171      9.04171      6.57621        -0.001938     -0.001938     -0.001938
     11.50549      9.03999      9.03999         0.001323      0.001323      0.001323
     11.50798     11.50798     11.50798        -0.000994     -0.000994     -0.000994
     13.96818     13.96818     11.50268        -0.000398     -0.000398     -0.000398
     16.43972     13.97422     13.97422         0.000304      0.000304      0.000304
     16.43361     16.43361     16.43361        -0.000304     -0.000304     -0.000304
     18.90515     18.90515     16.43965         0.000398      0.000398      0.000398
     21.36535     18.89985     18.89985         0.000994      0.000994      0.000994
     21.36784     21.36784     21.36784        -0.001323     -0.001323     -0.001323
     23.83162     23.83162     21.36612         0.001938      0.001938      0.001938
     26.29853     23.83303     23.83303         0.002009      0.002009      0.002009
     26.30360     26.30360     26.30360         0.001398      0.001398      0.001398
     28.77390     28.77390     26.30840         0.003454      0.003454      0.003454
     31.26261     28.79711     28.79711        -0.018037     -0.018037     -0.018037
     31.18684     31.18684     31.18684         0.124283      0.124283      0.124283
    total drift:                               -0.009977     -0.009757      0.019642

  FREE ENERGIE OF THE ION-ELECTRON SYSTEM (eV)
  free  energy   TOTEN  =       -70.61837758 eV

  energy  without entropy=      -70.61962407  energy(sigma->0) =      -70.61879308

 writing wavefunctions